1 100 639
2 4 1 2 0 2 5 0 2 5
3
7 6 2
0 40.0 50.0 0.0 0.0 0 240
2 25.0 85.0 10.0 20.0 130 190 43 0 1 0 0 0 0 1 0 0 0
3 22.0 75.0 10.0 30.0 35 95 37 0 1 1 0 1 0 0 0 0 1
4 22.0 85.0 10.0 10.0 94 154 96 0 0 1 1 0 0 0 0 0 1
5 20.0 80.0 10.0 40.0 126 186 54 0 1 0 1 0 0 0 0 0 1
6 20.0 85.0 10.0 20.0 40 100 84 0 0 1 1 1 0 1 0 0 0
7 18.0 75.0 10.0 20.0 80 140 83 0 0 0 0 0 0 1 0 0 1
8 15.0 75.0 10.0 20.0 64 124 54 1 0 0 0 0 1 0 0 1 0
9 15.0 80.0 10.0 10.0 76 136 21 1 0 1 0 0 0 1 1 0 1
10 10.0 35.0 10.0 20.0 76 136 29 0 0 1 1 0 1 0 0 0 1
11 10.0 40.0 10.0 30.0 104 164 91 0 0 0 0 0 1 0 0 0 0
12 8.0 40.0 10.0 40.0 44 104 54 0 1 1 0 0 1 0 0 1 0
13 8.0 45.0 10.0 20.0 49 109 84 0 0 0 0 1 1 1 0 0 0
14 5.0 35.0 10.0 10.0 127 187 73 0 0 0 0 0 0 1 1 0 0
15 5.0 45.0 10.0 10.0 35 95 1 0 0 0 1 0 0 1 1 1 0
16 2.0 40.0 10.0 20.0 43 103 85 1 0 0 0 0 0 0 1 0 0
17 0.0 40.0 10.0 20.0 57 117 44 1 1 0 0 0 0 0 1 0 1
18 0.0 45.0 10.0 20.0 129 189 74 0 0 1 0 0 0 1 0 0 0
19 44.0 5.0 10.0 20.0 72 132 57 0 0 0 0 1 1 0 0 0 1
20 42.0 10.0 10.0 40.0 57 117 8 0 0 0 0 0 1 0 0 0 0
21 42.0 15.0 10.0 10.0 107 167 30 0 0 0 0 1 0 0 0 0 0
22 40.0 5.0 10.0 10.0 52 112 37 0 0 0 0 1 1 1 1 0 0
23 40.0 15.0 10.0 40.0 77 137 85 0 0 0 0 0 0 1 0 1 1
24 38.0 5.0 10.0 30.0 50 110 88 0 0 0 0 0 0 1 0 0 0
25 38.0 15.0 10.0 10.0 133 193 32 0 0 0 0 0 1 0 0 0 0
26 35.0 5.0 10.0 20.0 124 184 58 0 0 0 0 0 0 1 0 0 0
27 95.0 30.0 10.0 30.0 100 160 8 1 0 1 0 0 0 0 0 0 1
28 95.0 35.0 10.0 20.0 57 117 6 1 0 0 0 0 0 0 0 1 0
29 92.0 30.0 10.0 10.0 55 115 16 0 0 1 0 0 0 1 0 0 0
30 90.0 35.0 10.0 10.0 52 112 5 1 0 0 0 0 0 0 1 0 1
31 88.0 30.0 10.0 10.0 59 119 79 0 1 0 0 0 1 0 0 1 0
32 88.0 35.0 10.0 20.0 50 110 75 0 0 0 0 0 1 0 0 0 0
33 87.0 30.0 10.0 10.0 116 176 88 0 0 0 0 0 1 1 0 0 0
34 85.0 25.0 10.0 10.0 51 111 99 1 0 0 0 1 0 0 0 0 1
35 85.0 35.0 10.0 30.0 96 156 91 1 0 0 1 0 0 1 0 0 0
36 67.0 85.0 10.0 20.0 124 184 45 0 0 0 0 0 0 0 1 0 0
37 65.0 85.0 10.0 40.0 43 103 0 0 0 0 0 0 0 0 1 0 0
38 65.0 82.0 10.0 10.0 109 169 0 0 1 0 0 0 0 1 0 1 0
39 62.0 80.0 10.0 30.0 60 120 12 0 1 0 0 0 0 0 1 0 0
40 60.0 80.0 10.0 10.0 36 96 77 1 0 0 0 0 0 0 0 1 1
41 60.0 85.0 10.0 30.0 70 130 85 0 0 0 0 0 1 0 0 0 0
42 58.0 75.0 10.0 20.0 77 137 43 0 0 0 0 0 0 0 1 0 0
43 55.0 80.0 10.0 10.0 33 93 65 0 0 0 0 0 1 1 0 1 0
44 55.0 85.0 10.0 20.0 113 173 79 0 0 0 0 0 1 0 0 0 0
45 55.0 82.0 10.0 10.0 49 109 22 0 0 1 0 0 0 0 0 0 0
46 20.0 82.0 10.0 10.0 37 97 56 0 0 0 1 0 0 1 0 0 0
47 18.0 80.0 10.0 10.0 98 158 64 0 0 0 0 0 1 0 0 0 0
48 2.0 45.0 10.0 10.0 38 98 24 0 0 0 0 0 0 1 1 0 1
49 42.0 5.0 10.0 10.0 124 184 73 0 0 1 0 0 1 1 0 0 1
50 42.0 12.0 10.0 10.0 89 149 58 0 0 0 0 0 1 0 0 0 0
51 72.0 35.0 10.0 30.0 101 161 7 0 1 1 0 0 0 0 0 1 0
52 55.0 20.0 10.0 19.0 68 128 3 0 0 0 0 0 0 1 0 0 0
53 25.0 30.0 10.0 3.0 37 97 99 1 0 1 0 0 1 0 0 0 0
54 20.0 50.0 10.0 5.0 76 136 52 0 0 0 0 0 0 1 0 0 0
55 55.0 60.0 10.0 16.0 124 184 73 0 0 0 0 0 1 0 0 0 0
56 30.0 60.0 10.0 16.0 125 185 44 0 0 1 0 0 0 0 0 1 1
57 50.0 35.0 10.0 19.0 115 175 5 1 0 0 0 0 0 0 0 0 0
58 30.0 25.0 10.0 23.0 81 141 39 1 0 0 0 0 0 0 0 0 0
59 15.0 10.0 10.0 20.0 122 182 68 0 0 1 0 1 0 1 0 0 1
60 10.0 20.0 10.0 19.0 42 102 47 0 0 0 0 0 0 1 1 0 0
61 15.0 60.0 10.0 17.0 140 200 48 0 1 0 0 0 1 0 0 0 0
62 45.0 65.0 10.0 9.0 51 111 83 0 1 0 0 1 0 1 0 0 0
63 65.0 35.0 10.0 3.0 37 97 92 1 1 1 0 0 0 0 0 0 1
64 65.0 20.0 10.0 6.0 39 99 32 0 1 0 0 0 0 0 0 0 1
65 45.0 30.0 10.0 17.0 38 98 12 1 1 0 0 0 0 1 0 0 0
66 35.0 40.0 10.0 16.0 11 71 71 0 0 0 0 0 0 1 0 1 1
67 41.0 37.0 10.0 16.0 118 178 3 0 0 0 0 1 0 0 1 1 0
68 64.0 42.0 10.0 9.0 55 115 20 0 0 0 0 0 0 0 0 0 1
69 40.0 60.0 10.0 21.0 129 189 21 1 0 1 1 1 1 0 0 0 0
70 31.0 52.0 10.0 27.0 26 86 87 0 0 0 0 0 0 1 0 0 0
71 35.0 69.0 10.0 23.0 150 210 23 1 1 0 0 0 0 1 0 0 0
72 65.0 55.0 10.0 14.0 50 110 74 0 1 0 0 0 0 0 0 0 0
73 63.0 65.0 10.0 8.0 27 87 11 0 0 0 0 0 0 1 0 1 1
74 2.0 60.0 10.0 5.0 62 122 92 0 0 0 0 0 0 0 1 0 0
75 20.0 20.0 10.0 8.0 126 186 24 0 0 0 0 1 0 0 0 1 0
76 5.0 5.0 10.0 16.0 59 119 73 0 0 0 0 0 1 0 0 0 0
77 60.0 12.0 10.0 31.0 60 120 44 0 0 0 1 0 0 0 0 0 1
78 23.0 3.0 10.0 7.0 120 180 31 0 0 0 0 0 0 0 0 0 1
79 8.0 56.0 10.0 27.0 75 135 92 0 1 1 1 0 0 0 0 0 1
80 6.0 68.0 10.0 30.0 74 134 59 0 0 0 0 0 1 0 0 0 1
81 47.0 47.0 10.0 13.0 162 222 76 1 0 0 1 0 1 0 0 0 1
82 49.0 58.0 10.0 10.0 71 131 52 0 0 0 0 0 1 0 0 1 1
83 27.0 43.0 10.0 9.0 27 87 0 0 1 0 1 0 0 0 0 1 0
84 37.0 31.0 10.0 14.0 20 80 87 1 0 0 0 0 0 0 1 0 0
85 57.0 29.0 10.0 18.0 81 141 69 1 0 0 1 1 0 0 0 1 1
86 63.0 23.0 10.0 2.0 72 132 45 0 0 0 0 0 1 0 0 0 0
87 21.0 24.0 10.0 28.0 72 132 14 1 0 0 0 1 0 0 0 1 0
88 12.0 24.0 10.0 13.0 75 135 56 0 0 0 0 0 1 0 0 0 0
89 24.0 58.0 10.0 19.0 52 112 9 0 0 0 0 0 1 0 0 0 0
90 67.0 5.0 10.0 25.0 117 177 62 0 0 0 0 0 1 0 0 1 0
91 37.0 47.0 10.0 6.0 71 131 80 0 0 1 0 0 0 0 0 0 0
92 49.0 42.0 10.0 13.0 152 212 13 0 0 0 0 1 1 0 1 0 0
93 53.0 43.0 10.0 14.0 14 74 46 0 0 0 0 0 0 0 0 0 1
94 61.0 52.0 10.0 3.0 148 208 88 1 0 0 0 1 0 0 0 0 1
95 57.0 48.0 10.0 23.0 80 140 40 0 0 0 0 0 1 0 0 0 0
96 56.0 37.0 10.0 6.0 20 80 34 0 1 0 0 1 0 0 1 0 0
97 55.0 54.0 10.0 26.0 117 177 44 0 0 0 0 0 1 0 0 0 0
98 4.0 18.0 10.0 35.0 105 165 79 0 0 0 1 0 0 0 1 0 0
99 26.0 52.0 10.0 9.0 31 91 31 0 0 0 0 0 1 0 0 0 0
100 26.0 35.0 10.0 15.0 62 122 41 0 0 0 0 0 1 0 0 0 0
101 31.0 67.0 10.0 3.0 150 210 18 0 1 0 0 0 0 0 1 0 0